\ Model MinCost
\ LP format - for model browsing. Use MPS format to capture full model detail.
Minimize
  57 t_0^{737,0} + 0 t_737^{0,0} + 87 t_1^{737,0} + 0 t_737^{1,0}
   + 90 t_2^{737,0} + 0 t_737^{2,0} + 105 t_3^{737,0} + 0 t_737^{3,0}
   + 91 t_4^{737,0} + 0 t_737^{4,0} + 78 t_5^{737,0} + 0 t_737^{5,0}
   + 76 t_6^{737,0} + 0 t_737^{6,0} + 102 t_7^{737,0} + 0 t_737^{7,0}
   + 79 t_8^{737,0} + 0 t_737^{8,0} + 96 t_9^{737,0} + 0 t_737^{9,0}
   + 76 t_10^{737,0} + 0 t_737^{10,0} + 100 t_11^{737,0} + 0 t_737^{11,0}
   + 84 t_12^{737,0} + 0 t_737^{12,0} + 93 t_13^{737,0} + 0 t_737^{13,0}
   + 48 t_14^{737,0} + 0 t_737^{14,0} + 48 t_15^{737,0} + 0 t_737^{15,0}
   + 43 t_16^{737,0} + 0 t_737^{16,0} + 95 t_17^{737,0} + 0 t_737^{17,0}
   + 97 t_18^{737,0} + 0 t_737^{18,0} + 41 t_19^{737,0} + 0 t_737^{19,0}
   + 50 t_20^{737,0} + 0 t_737^{20,0} + 63 t_21^{737,0} + 0 t_737^{21,0}
   + 54 t_22^{737,0} + 0 t_737^{22,0} + 90 t_23^{737,0} + 0 t_737^{23,0}
   + 53 t_24^{737,0} + 0 t_737^{24,0} + 51 t_25^{737,0} + 0 t_737^{25,0}
   + 42 t_26^{737,0} + 0 t_737^{26,0} + 43 t_27^{737,0} + 0 t_737^{27,0}
   + 42 t_28^{737,0} + 0 t_737^{28,0} + 40 t_29^{737,0} + 0 t_737^{29,0}
   + 57 t_30^{737,0} + 0 t_737^{30,0} + 91 t_31^{737,0} + 0 t_737^{31,0}
   + 43 t_32^{737,0} + 0 t_737^{32,0} + 85 t_33^{737,0} + 0 t_737^{33,0}
   + 90 t_34^{737,0} + 0 t_737^{34,0} + 96 t_35^{737,0} + 0 t_737^{35,0}
   + 101 t_36^{737,0} + 0 t_737^{36,0} + 96 t_37^{737,0} + 0 t_737^{37,0}
   + 97 t_38^{737,0} + 0 t_737^{38,0} + 80 t_39^{737,0} + 0 t_737^{39,0}
   + 41 t_40^{737,0} + 0 t_737^{40,0} + 42 t_41^{737,0} + 0 t_737^{41,0}
   + 99 t_42^{737,0} + 0 t_737^{42,0} + 41 t_43^{737,0} + 0 t_737^{43,0}
   + 91 t_44^{737,0} + 0 t_737^{44,0} + 53 t_45^{737,0} + 0 t_737^{45,0}
   + 44 t_46^{737,0} + 0 t_737^{46,0} + 45 t_47^{737,0} + 0 t_737^{47,0}
   + 49 t_48^{737,0} + 0 t_737^{48,0} + 44 t_49^{737,0} + 0 t_737^{49,0}
   + 41 t_50^{737,0} + 0 t_737^{50,0} + 99 t_51^{737,0} + 0 t_737^{51,0}
   + 52 t_52^{737,0} + 0 t_737^{52,0} + 86 t_53^{737,0} + 0 t_737^{53,0}
   + 91 t_54^{737,0} + 0 t_737^{54,0} + 87 t_55^{737,0} + 0 t_737^{55,0}
   + 86 t_56^{737,0} + 0 t_737^{56,0} + 100 t_57^{737,0} + 0 t_737^{57,0}
   + 46 t_58^{737,0} + 0 t_737^{58,0} + 45 t_59^{737,0} + 0 t_737^{59,0}
   + 47 t_60^{737,0} + 0 t_737^{60,0} + 84 t_61^{737,0} + 0 t_737^{61,0}
   + 46 t_62^{737,0} + 0 t_737^{62,0} + 96 t_63^{737,0} + 0 t_737^{63,0}
   + 38 t_64^{737,0} + 0 t_737^{64,0} + 44 t_65^{737,0} + 0 t_737^{65,0}
   + 44 t_66^{737,0} + 0 t_737^{66,0} + 94 t_67^{737,0} + 0 t_737^{67,0}
   + 65 t_68^{737,0} + 0 t_737^{68,0} + 37 t_69^{737,0} + 0 t_737^{69,0}
   + 78 t_70^{737,0} + 0 t_737^{70,0} + 45 t_71^{737,0} + 0 t_737^{71,0}
   + 40 t_72^{737,0} + 0 t_737^{72,0} + 52 t_73^{737,0} + 0 t_737^{73,0}
   + 44 t_74^{737,0} + 0 t_737^{74,0} + 57 t_75^{737,0} + 0 t_737^{75,0}
   + 66 t_76^{737,0} + 0 t_737^{76,0} + 91 t_77^{737,0} + 0 t_737^{77,0}
   + 47 t_78^{737,0} + 0 t_737^{78,0} + 46 t_79^{737,0} + 0 t_737^{79,0}
   + 47 t_80^{737,0} + 0 t_737^{80,0} + 47 t_81^{737,0} + 0 t_737^{81,0}
   + 41 t_82^{737,0} + 0 t_737^{82,0} + 87 t_83^{737,0} + 0 t_737^{83,0}
   + 49 t_84^{737,0} + 0 t_737^{84,0} + 42 t_85^{737,0} + 0 t_737^{85,0}
   + 85 t_86^{737,0} + 0 t_737^{86,0} + 89 t_87^{737,0} + 0 t_737^{87,0}
   + 42 t_88^{737,0} + 0 t_737^{88,0} + 63 t_89^{737,0} + 0 t_737^{89,0}
   + 49 t_90^{737,0} + 0 t_737^{90,0} + 43 t_91^{737,0} + 0 t_737^{91,0}
   + 49 t_92^{737,0} + 0 t_737^{92,0} + 103 t_93^{737,0} + 0 t_737^{93,0}
   + 87 t_94^{737,0} + 0 t_737^{94,0} + 101 t_95^{737,0} + 0 t_737^{95,0}
   + 90 t_96^{737,0} + 0 t_737^{96,0} + 94 t_97^{737,0} + 0 t_737^{97,0}
   + 84 t_98^{737,0} + 0 t_737^{98,0} + 74 t_99^{737,0} + 0 t_737^{99,0}
   + 78 t_100^{737,0} + 0 t_737^{100,0} + 47 t_101^{737,0}
   + 0 t_737^{101,0} + 36 t_102^{737,0} + 0 t_737^{102,0}
   + 45 t_103^{737,0} + 0 t_737^{103,0} + 92 t_104^{737,0}
   + 0 t_737^{104,0} + 43 t_105^{737,0} + 0 t_737^{105,0}
   + 52 t_106^{737,0} + 0 t_737^{106,0} + 39 t_107^{737,0}
   + 0 t_737^{107,0} + 51 t_108^{737,0} + 0 t_737^{108,0}
   + 58 t_109^{737,0} + 0 t_737^{109,0} + 65 t_110^{737,0}
   + 0 t_737^{110,0} + 42 t_111^{737,0} + 0 t_737^{111,0}
   + 40 t_112^{737,0} + 0 t_737^{112,0} + 50 t_113^{737,0}
   + 0 t_737^{113,0} + 39 t_114^{737,0} + 0 t_737^{114,0}
   + 37 t_115^{737,0} + 0 t_737^{115,0} + 175 t_116^{737,0}
   + 0 t_737^{116,0} + 51 t_117^{737,0} + 0 t_737^{117,0}
   + 41 t_118^{737,0} + 0 t_737^{118,0} + 235 t_119^{737,0}
   + 0 t_737^{119,0} + 48 t_120^{737,0} + 0 t_737^{120,0}
   + 38.34 t_120^{79,0} + 0 t_79^{120,0} + 40.44 t_120^{85,0}
   + 0 t_85^{120,0} + 47 t_121^{737,0} + 0 t_737^{121,0}
   + 35.11 t_121^{82,0} + 0 t_82^{121,0} + 56 t_122^{737,0}
   + 0 t_737^{122,0} + 51 t_123^{737,0} + 0 t_737^{123,0}
   + 41 t_124^{737,0} + 0 t_737^{124,0} + 38 t_125^{737,0}
   + 0 t_737^{125,0} + 110 t_126^{737,0} + 0 t_737^{126,0}
   + 45 t_127^{737,0} + 0 t_737^{127,0} + 43 t_128^{737,0}
   + 0 t_737^{128,0} + 47 t_129^{737,0} + 0 t_737^{129,0}
   + 49 t_130^{737,0} + 0 t_737^{130,0} + 38 t_131^{737,0}
   + 0 t_737^{131,0} + 45 t_132^{737,0} + 0 t_737^{132,0}
   + 128 t_133^{737,0} + 0 t_737^{133,0} + 112 t_134^{737,0}
   + 0 t_737^{134,0} + 66 t_135^{737,0} + 0 t_737^{135,0}
   + 51 t_136^{737,0} + 0 t_737^{136,0} + 43 t_137^{737,0}
   + 0 t_737^{137,0} + 41 t_138^{737,0} + 0 t_737^{138,0}
   + 48 t_139^{737,0} + 0 t_737^{139,0} + 53 t_140^{737,0}
   + 0 t_737^{140,0} + 190 t_141^{737,0} + 0 t_737^{141,0}
   + 43 t_142^{737,0} + 0 t_737^{142,0} + 47 t_143^{737,0}
   + 0 t_737^{143,0} + 107 t_144^{737,0} + 0 t_737^{144,0}
   + 115 t_145^{737,0} + 0 t_737^{145,0} + 68 t_146^{737,0}
   + 0 t_737^{146,0} + 44 t_147^{737,0} + 0 t_737^{147,0}
   + 68 t_148^{737,0} + 0 t_737^{148,0} + 43 t_149^{737,0}
   + 0 t_737^{149,0} + 244 t_150^{737,0} + 0 t_737^{150,0}
   + 89 t_151^{737,0} + 0 t_737^{151,0} + 183 t_152^{737,0}
   + 0 t_737^{152,0} + 45 t_153^{737,0} + 0 t_737^{153,0}
   + 55 t_154^{737,0} + 0 t_737^{154,0} + 47 t_155^{737,0}
   + 0 t_737^{155,0} + 93 t_156^{737,0} + 0 t_737^{156,0}
   + 47 t_157^{737,0} + 0 t_737^{157,0} + 28.08 t_157^{142,0}
   + 0 t_142^{157,0} + 30.23 t_157^{149,0} + 0 t_149^{157,0}
   + 50 t_158^{737,0} + 0 t_737^{158,0} + 41 t_159^{737,0}
   + 0 t_737^{159,0} + 45 t_160^{737,0} + 0 t_737^{160,0}
   + 28.66 t_160^{142,0} + 0 t_142^{160,0} + 26.08 t_160^{149,0}
   + 0 t_149^{160,0} + 45 t_161^{737,0} + 0 t_737^{161,0}
   + 120 t_162^{737,0} + 0 t_737^{162,0} + 39 t_163^{737,0}
   + 0 t_737^{163,0} + 47 t_164^{737,0} + 0 t_737^{164,0}
   + 46 t_165^{737,0} + 0 t_737^{165,0} + 80 t_166^{737,0}
   + 0 t_737^{166,0} + 42 t_167^{737,0} + 0 t_737^{167,0}
   + 41 t_168^{737,0} + 0 t_737^{168,0} + 44 t_169^{737,0}
   + 0 t_737^{169,0} + 44 t_170^{737,0} + 0 t_737^{170,0}
   + 85 t_171^{737,0} + 0 t_737^{171,0} + 173 t_172^{737,0}
   + 0 t_737^{172,0} + 48 t_173^{737,0} + 0 t_737^{173,0}
   + 90 t_174^{737,0} + 0 t_737^{174,0} + 50 t_175^{737,0}
   + 0 t_737^{175,0} + 91 t_176^{737,0} + 0 t_737^{176,0}
   + 123 t_177^{737,0} + 0 t_737^{177,0} + 44 t_178^{737,0}
   + 0 t_737^{178,0} + 44 t_179^{737,0} + 0 t_737^{179,0}
   + 102 t_180^{737,0} + 0 t_737^{180,0} + 43 t_181^{737,0}
   + 0 t_737^{181,0} + 41 t_182^{737,0} + 0 t_737^{182,0}
   + 43 t_183^{737,0} + 0 t_737^{183,0} + 51 t_184^{737,0}
   + 0 t_737^{184,0} + 47 t_185^{737,0} + 0 t_737^{185,0}
   + 173 t_186^{737,0} + 0 t_737^{186,0} + 88 t_187^{737,0}
   + 0 t_737^{187,0} + 40.06 t_187^{190,0} + 0 t_190^{187,0}
   + 97 t_188^{737,0} + 0 t_737^{188,0} + 99 t_189^{737,0}
   + 0 t_737^{189,0} + 102 t_190^{737,0} + 0 t_737^{190,0}
   + 80 t_191^{737,0} + 0 t_737^{191,0} + 81 t_192^{737,0}
   + 0 t_737^{192,0} + 89 t_193^{737,0} + 0 t_737^{193,0}
   + 43.1 t_193^{190,0} + 0 t_190^{193,0} + 99 t_194^{737,0}
   + 0 t_737^{194,0} + 90 t_195^{737,0} + 0 t_737^{195,0}
   + 100 t_196^{737,0} + 0 t_737^{196,0} + 141 t_197^{737,0}
   + 0 t_737^{197,0} + 263 t_198^{737,0} + 0 t_737^{198,0}
   + 46 t_199^{737,0} + 0 t_737^{199,0} + 51 t_200^{737,0}
   + 0 t_737^{200,0} + 40 t_201^{737,0} + 0 t_737^{201,0}
   + 47 t_202^{737,0} + 0 t_737^{202,0} + 41 t_203^{737,0}
   + 0 t_737^{203,0} + 50 t_204^{737,0} + 0 t_737^{204,0}
   + 36 t_205^{737,0} + 0 t_737^{205,0} + 44 t_206^{737,0}
   + 0 t_737^{206,0} + 49 t_207^{737,0} + 0 t_737^{207,0}
   + 42 t_208^{737,0} + 0 t_737^{208,0} + 43 t_209^{737,0}
   + 0 t_737^{209,0} + 89 t_210^{737,0} + 0 t_737^{210,0}
   + 42 t_211^{737,0} + 0 t_737^{211,0} + 43 t_212^{737,0}
   + 0 t_737^{212,0} + 88 t_213^{737,0} + 0 t_737^{213,0}
   + 38 t_214^{737,0} + 0 t_737^{214,0} + 42 t_215^{737,0}
   + 0 t_737^{215,0} + 49 t_216^{737,0} + 0 t_737^{216,0}
   + 199 t_217^{737,0} + 0 t_737^{217,0} + 124 t_218^{737,0}
   + 0 t_737^{218,0} + 42 t_219^{737,0} + 0 t_737^{219,0}
   + 45 t_220^{737,0} + 0 t_737^{220,0} + 43 t_221^{737,0}
   + 0 t_737^{221,0} + 42 t_222^{737,0} + 0 t_737^{222,0}
   + 45 t_223^{737,0} + 0 t_737^{223,0} + 39 t_224^{737,0}
   + 0 t_737^{224,0} + 46 t_225^{737,0} + 0 t_737^{225,0}
   + 49 t_226^{737,0} + 0 t_737^{226,0} + 50 t_227^{737,0}
   + 0 t_737^{227,0} + 106 t_228^{737,0} + 0 t_737^{228,0}
   + 45 t_229^{737,0} + 0 t_737^{229,0} + 47 t_230^{737,0}
   + 0 t_737^{230,0} + 42 t_231^{737,0} + 0 t_737^{231,0}
   + 46 t_232^{737,0} + 0 t_737^{232,0} + 43 t_233^{737,0}
   + 0 t_737^{233,0} + 45 t_234^{737,0} + 0 t_737^{234,0}
   + 41 t_235^{737,0} + 0 t_737^{235,0} + 43 t_236^{737,0}
   + 0 t_737^{236,0} + 50 t_237^{737,0} + 0 t_737^{237,0}
   + 49 t_238^{737,0} + 0 t_737^{238,0} + 43 t_239^{737,0}
   + 0 t_737^{239,0} + 41 t_240^{737,0} + 0 t_737^{240,0}
   + 40 t_241^{737,0} + 0 t_737^{241,0} + 48 t_242^{737,0}
   + 0 t_737^{242,0} + 44 t_243^{737,0} + 0 t_737^{243,0}
   + 46 t_244^{737,0} + 0 t_737^{244,0} + 143 t_245^{737,0}
   + 0 t_737^{245,0} + 91 t_246^{737,0} + 0 t_737^{246,0}
   + 94 t_247^{737,0} + 0 t_737^{247,0} + 92 t_248^{737,0}
   + 0 t_737^{248,0} + 81 t_249^{737,0} + 0 t_737^{249,0}
   + 38.23 t_249^{246,0} + 0 t_246^{249,0} + 84 t_250^{737,0}
   + 0 t_737^{250,0} + 91 t_251^{737,0} + 0 t_737^{251,0}
   + 85 t_252^{737,0} + 0 t_737^{252,0} + 79 t_253^{737,0}
   + 0 t_737^{253,0} + 95 t_254^{737,0} + 0 t_737^{254,0}
   + 93 t_255^{737,0} + 0 t_737^{255,0} + 44 t_256^{737,0}
   + 0 t_737^{256,0} + 44 t_257^{737,0} + 0 t_737^{257,0}
   + 122 t_258^{737,0} + 0 t_737^{258,0} + 44 t_259^{737,0}
   + 0 t_737^{259,0} + 42 t_260^{737,0} + 0 t_737^{260,0}
   + 48 t_261^{737,0} + 0 t_737^{261,0} + 50 t_262^{737,0}
   + 0 t_737^{262,0} + 50 t_263^{737,0} + 0 t_737^{263,0}
   + 43 t_264^{737,0} + 0 t_737^{264,0} + 42 t_265^{737,0}
   + 0 t_737^{265,0} + 45 t_266^{737,0} + 0 t_737^{266,0}
   + 45 t_267^{737,0} + 0 t_737^{267,0} + 49 t_268^{737,0}
   + 0 t_737^{268,0} + 174 t_269^{737,0} + 0 t_737^{269,0}
   + 207 t_270^{737,0} + 0 t_737^{270,0} + 39 t_271^{737,0}
   + 0 t_737^{271,0} + 48 t_272^{737,0} + 0 t_737^{272,0}
   + 42 t_273^{737,0} + 0 t_737^{273,0} + 39 t_274^{737,0}
   + 0 t_737^{274,0} + 29.16 t_274^{168,0} + 0 t_168^{274,0}
   + 39 t_275^{737,0} + 0 t_737^{275,0} + 53 t_276^{737,0}
   + 0 t_737^{276,0} + 41 t_277^{737,0} + 0 t_737^{277,0}
   + 21.89 t_277^{283,0} + 0 t_283^{277,0} + 43 t_278^{737,0}
   + 0 t_737^{278,0} + 33.55 t_278^{161,0} + 0 t_161^{278,0}
   + 47 t_279^{737,0} + 0 t_737^{279,0} + 31.6 t_279^{154,0}
   + 0 t_154^{279,0} + 44 t_280^{737,0} + 0 t_737^{280,0}
   + 46 t_281^{737,0} + 0 t_737^{281,0} + 48 t_282^{737,0}
   + 0 t_737^{282,0} + 39 t_283^{737,0} + 0 t_737^{283,0}
   + 52 t_284^{737,0} + 0 t_737^{284,0} + 45 t_285^{737,0}
   + 0 t_737^{285,0} + 64 t_286^{737,0} + 0 t_737^{286,0}
   + 48 t_287^{737,0} + 0 t_737^{287,0} + 47 t_288^{737,0}
   + 0 t_737^{288,0} + 41 t_289^{737,0} + 0 t_737^{289,0}
   + 38 t_290^{737,0} + 0 t_737^{290,0} + 42 t_291^{737,0}
   + 0 t_737^{291,0} + 49 t_292^{737,0} + 0 t_737^{292,0}
   + 227 t_293^{737,0} + 0 t_737^{293,0} + 91 t_294^{737,0}
   + 0 t_737^{294,0} + 96 t_295^{737,0} + 0 t_737^{295,0}
   + 87 t_296^{737,0} + 0 t_737^{296,0} + 90 t_297^{737,0}
   + 0 t_737^{297,0} + 88 t_298^{737,0} + 0 t_737^{298,0}
   + 86 t_299^{737,0} + 0 t_737^{299,0} + 82 t_300^{737,0}
   + 0 t_737^{300,0} + 99 t_301^{737,0} + 0 t_737^{301,0}
   + 83 t_302^{737,0} + 0 t_737^{302,0} + 79 t_303^{737,0}
   + 0 t_737^{303,0} + 91 t_304^{737,0} + 0 t_737^{304,0}
   + 46 t_305^{737,0} + 0 t_737^{305,0} + 94 t_306^{737,0}
   + 0 t_737^{306,0} + 70 t_307^{737,0} + 0 t_737^{307,0}
   + 49 t_308^{737,0} + 0 t_737^{308,0} + 48 t_309^{737,0}
   + 0 t_737^{309,0} + 44 t_310^{737,0} + 0 t_737^{310,0}
   + 44 t_311^{737,0} + 0 t_737^{311,0} + 47 t_312^{737,0}
   + 0 t_737^{312,0} + 46 t_313^{737,0} + 0 t_737^{313,0}
   + 52 t_314^{737,0} + 0 t_737^{314,0} + 46 t_315^{737,0}
   + 0 t_737^{315,0} + 125 t_316^{737,0} + 0 t_737^{316,0}
   + 39 t_317^{737,0} + 0 t_737^{317,0} + 50 t_318^{737,0}
   + 0 t_737^{318,0} + 48 t_319^{737,0} + 0 t_737^{319,0}
   + 41 t_320^{737,0} + 0 t_737^{320,0} + 45 t_321^{737,0}
   + 0 t_737^{321,0} + 43 t_322^{737,0} + 0 t_737^{322,0}
   + 82 t_323^{737,0} + 0 t_737^{323,0} + 45 t_324^{737,0}
   + 0 t_737^{324,0} + 87 t_325^{737,0} + 0 t_737^{325,0}
   + 101 t_326^{737,0} + 0 t_737^{326,0} + 190 t_327^{737,0}
   + 0 t_737^{327,0} + 83 t_328^{737,0} + 0 t_737^{328,0}
   + 88 t_329^{737,0} + 0 t_737^{329,0} + 87 t_330^{737,0}
   + 0 t_737^{330,0} + 75 t_331^{737,0} + 0 t_737^{331,0}
   + 101 t_332^{737,0} + 0 t_737^{332,0} + 86 t_333^{737,0}
   + 0 t_737^{333,0} + 86 t_334^{737,0} + 0 t_737^{334,0}
   + 87 t_335^{737,0} + 0 t_737^{335,0} + 87 t_336^{737,0}
   + 0 t_737^{336,0} + 43 t_337^{737,0} + 0 t_737^{337,0}
   + 44 t_338^{737,0} + 0 t_737^{338,0} + 49 t_339^{737,0}
   + 0 t_737^{339,0} + 48 t_340^{737,0} + 0 t_737^{340,0}
   + 45 t_341^{737,0} + 0 t_737^{341,0} + 161 t_342^{737,0}
   + 0 t_737^{342,0} + 82 t_343^{737,0} + 0 t_737^{343,0}
   + 97 t_344^{737,0} + 0 t_737^{344,0} + 91 t_345^{737,0}
   + 0 t_737^{345,0} + 89 t_346^{737,0} + 0 t_737^{346,0}
   + 98 t_347^{737,0} + 0 t_737^{347,0} + 78 t_348^{737,0}
   + 0 t_737^{348,0} + 84 t_349^{737,0} + 0 t_737^{349,0}
   + 91 t_350^{737,0} + 0 t_737^{350,0} + 102 t_351^{737,0}
   + 0 t_737^{351,0} + 68 t_352^{737,0} + 0 t_737^{352,0}
   + 168 t_353^{737,0} + 0 t_737^{353,0} + 65 t_354^{737,0}
   + 0 t_737^{354,0} + 39 t_355^{737,0} + 0 t_737^{355,0}
   + 25.05 t_355^{266,0} + 0 t_266^{355,0} + 52 t_356^{737,0}
   + 0 t_737^{356,0} + 37 t_357^{737,0} + 0 t_737^{357,0}
   + 45 t_358^{737,0} + 0 t_737^{358,0} + 44 t_359^{737,0}
   + 0 t_737^{359,0} + 77 t_360^{737,0} + 0 t_737^{360,0}
   + 40 t_361^{737,0} + 0 t_737^{361,0} + 26.5 t_361^{266,0}
   + 0 t_266^{361,0} + 84 t_362^{737,0} + 0 t_737^{362,0}
   + 43 t_363^{737,0} + 0 t_737^{363,0} + 52 t_364^{737,0}
   + 0 t_737^{364,0} + 87 t_365^{737,0} + 0 t_737^{365,0}
   + 48 t_366^{737,0} + 0 t_737^{366,0} + 42 t_367^{737,0}
   + 0 t_737^{367,0} + 47 t_368^{737,0} + 0 t_737^{368,0}
   + 76 t_369^{737,0} + 0 t_737^{369,0} + 269 t_370^{737,0}
   + 0 t_737^{370,0} + 48 t_371^{737,0} + 0 t_737^{371,0}
   + 47 t_372^{737,0} + 0 t_737^{372,0} + 43 t_373^{737,0}
   + 0 t_737^{373,0} + 82 t_374^{737,0} + 0 t_737^{374,0}
   + 51 t_375^{737,0} + 0 t_737^{375,0} + 47 t_376^{737,0}
   + 0 t_737^{376,0} + 33.74 t_376^{200,0} + 0 t_200^{376,0}
   + 47 t_377^{737,0} + 0 t_737^{377,0} + 100 t_378^{737,0}
   + 0 t_737^{378,0} + 159 t_379^{737,0} + 0 t_737^{379,0}
   + 194 t_380^{737,0} + 0 t_737^{380,0} + 80 t_381^{737,0}
   + 0 t_737^{381,0} + 50 t_382^{737,0} + 0 t_737^{382,0}
   + 42 t_383^{737,0} + 0 t_737^{383,0} + 50 t_384^{737,0}
   + 0 t_737^{384,0} + 84 t_385^{737,0} + 0 t_737^{385,0}
   + 95 t_386^{737,0} + 0 t_737^{386,0} + 41 t_387^{737,0}
   + 0 t_737^{387,0} + 26.6 t_387^{282,0} + 0 t_282^{387,0}
   + 46 t_388^{737,0} + 0 t_737^{388,0} + 44 t_389^{737,0}
   + 0 t_737^{389,0} + 56 t_390^{737,0} + 0 t_737^{390,0}
   + 103 t_391^{737,0} + 0 t_737^{391,0} + 76 t_392^{737,0}
   + 0 t_737^{392,0} + 64 t_393^{737,0} + 0 t_737^{393,0}
   + 43 t_394^{737,0} + 0 t_737^{394,0} + 102 t_395^{737,0}
   + 0 t_737^{395,0} + 80 t_396^{737,0} + 0 t_737^{396,0}
   + 47 t_397^{737,0} + 0 t_737^{397,0} + 42 t_398^{737,0}
   + 0 t_737^{398,0} + 29.4 t_398^{291,0} + 0 t_291^{398,0}
   + 46 t_399^{737,0} + 0 t_737^{399,0} + 48 t_400^{737,0}
   + 0 t_737^{400,0} + 60 t_401^{737,0} + 0 t_737^{401,0}
   + 90 t_402^{737,0} + 0 t_737^{402,0} + 94 t_403^{737,0}
   + 0 t_737^{403,0} + 81 t_404^{737,0} + 0 t_737^{404,0}
   + 48 t_405^{737,0} + 0 t_737^{405,0} + 51 t_406^{737,0}
   + 0 t_737^{406,0} + 43 t_407^{737,0} + 0 t_737^{407,0}
   + 50 t_408^{737,0} + 0 t_737^{408,0} + 44 t_409^{737,0}
   + 0 t_737^{409,0} + 42 t_410^{737,0} + 0 t_737^{410,0}
   + 41 t_411^{737,0} + 0 t_737^{411,0} + 50 t_412^{737,0}
   + 0 t_737^{412,0} + 46 t_413^{737,0} + 0 t_737^{413,0}
   + 41 t_414^{737,0} + 0 t_737^{414,0} + 109 t_415^{737,0}
   + 0 t_737^{415,0} + 86 t_416^{737,0} + 0 t_737^{416,0}
   + 39 t_417^{737,0} + 0 t_737^{417,0} + 44 t_418^{737,0}
   + 0 t_737^{418,0} + 46 t_419^{737,0} + 0 t_737^{419,0}
   + 37 t_420^{737,0} + 0 t_737^{420,0} + 86 t_421^{737,0}
   + 0 t_737^{421,0} + 41 t_422^{737,0} + 0 t_737^{422,0}
   + 26.9 t_422^{372,0} + 0 t_372^{422,0} + 47 t_423^{737,0}
   + 0 t_737^{423,0} + 107 t_424^{737,0} + 0 t_737^{424,0}
   + 102 t_425^{737,0} + 0 t_737^{425,0} + 49 t_426^{737,0}
   + 0 t_737^{426,0} + 45 t_427^{737,0} + 0 t_737^{427,0}
   + 49 t_428^{737,0} + 0 t_737^{428,0} + 40 t_429^{737,0}
   + 0 t_737^{429,0} + 43 t_430^{737,0} + 0 t_737^{430,0}
   + 43 t_431^{737,0} + 0 t_737^{431,0} + 48 t_432^{737,0}
   + 0 t_737^{432,0} + 103 t_433^{737,0} + 0 t_737^{433,0}
   + 188 t_434^{737,0} + 0 t_737^{434,0} + 53 t_435^{737,0}
   + 0 t_737^{435,0} + 45 t_436^{737,0} + 0 t_737^{436,0}
   + 72 t_437^{737,0} + 0 t_737^{437,0} + 49 t_438^{737,0}
   + 0 t_737^{438,0} + 48 t_439^{737,0} + 0 t_737^{439,0}
   + 53 t_440^{737,0} + 0 t_737^{440,0} + 45 t_441^{737,0}
   + 0 t_737^{441,0} + 30.5 t_441^{382,0} + 0 t_382^{441,0}
   + 89 t_442^{737,0} + 0 t_737^{442,0} + 66.6 t_442^{381,0}
   + 0 t_381^{442,0} + 42 t_443^{737,0} + 0 t_737^{443,0}
   + 40 t_444^{737,0} + 0 t_737^{444,0} + 44 t_445^{737,0}
   + 0 t_737^{445,0} + 37 t_446^{737,0} + 0 t_737^{446,0}
   + 86 t_447^{737,0} + 0 t_737^{447,0} + 47 t_448^{737,0}
   + 0 t_737^{448,0} + 107 t_449^{737,0} + 0 t_737^{449,0}
   + 51 t_450^{737,0} + 0 t_737^{450,0} + 50 t_451^{737,0}
   + 0 t_737^{451,0} + 45 t_452^{737,0} + 0 t_737^{452,0}
   + 93 t_453^{737,0} + 0 t_737^{453,0} + 92 t_454^{737,0}
   + 0 t_737^{454,0} + 45 t_455^{737,0} + 0 t_737^{455,0}
   + 44 t_456^{737,0} + 0 t_737^{456,0} + 42 t_457^{737,0}
   + 0 t_737^{457,0} + 42 t_458^{737,0} + 0 t_737^{458,0}
   + 99 t_459^{737,0} + 0 t_737^{459,0} + 102 t_460^{737,0}
   + 0 t_737^{460,0} + 92 t_461^{737,0} + 0 t_737^{461,0}
   + 115 t_462^{737,0} + 0 t_737^{462,0} + 64 t_463^{737,0}
   + 0 t_737^{463,0} + 56 t_464^{737,0} + 0 t_737^{464,0}
   + 52 t_465^{737,0} + 0 t_737^{465,0} + 38 t_466^{737,0}
   + 0 t_737^{466,0} + 44 t_467^{737,0} + 0 t_737^{467,0}
   + 39 t_468^{737,0} + 0 t_737^{468,0} + 29.97 t_468^{394,0}
   + 0 t_394^{468,0} + 51 t_469^{737,0} + 0 t_737^{469,0}
   + 48 t_470^{737,0} + 0 t_737^{470,0} + 93 t_471^{737,0}
   + 0 t_737^{471,0} + 39 t_472^{737,0} + 0 t_737^{472,0}
   + 47 t_473^{737,0} + 0 t_737^{473,0} + 89 t_474^{737,0}
   + 0 t_737^{474,0} + 39 t_475^{737,0} + 0 t_737^{475,0}
   + 43 t_476^{737,0} + 0 t_737^{476,0} + 53 t_477^{737,0}
   + 0 t_737^{477,0} + 104 t_478^{737,0} + 0 t_737^{478,0}
   + 95 t_479^{737,0} + 0 t_737^{479,0} + 150 t_480^{737,0}
   + 0 t_737^{480,0} + 87 t_481^{737,0} + 0 t_737^{481,0}
   + 83 t_482^{737,0} + 0 t_737^{482,0} + 83 t_483^{737,0}
   + 0 t_737^{483,0} + 81 t_484^{737,0} + 0 t_737^{484,0}
   + 102 t_485^{737,0} + 0 t_737^{485,0} + 90 t_486^{737,0}
   + 0 t_737^{486,0} + 96 t_487^{737,0} + 0 t_737^{487,0}
   + 39 t_488^{737,0} + 0 t_737^{488,0} + 51 t_489^{737,0}
   + 0 t_737^{489,0} + 42 t_490^{737,0} + 0 t_737^{490,0}
   + 50 t_491^{737,0} + 0 t_737^{491,0} + 38 t_492^{737,0}
   + 0 t_737^{492,0} + 39 t_493^{737,0} + 0 t_737^{493,0}
   + 37 t_494^{737,0} + 0 t_737^{494,0} + 86 t_495^{737,0}
   + 0 t_737^{495,0} + 51 t_496^{737,0} + 0 t_737^{496,0}
   + 50 t_497^{737,0} + 0 t_737^{497,0} + 83 t_498^{737,0}
   + 0 t_737^{498,0} + 45 t_499^{737,0} + 0 t_737^{499,0}
   + 97 t_500^{737,0} + 0 t_737^{500,0} + 41 t_501^{737,0}
   + 0 t_737^{501,0} + 117 t_502^{737,0} + 0 t_737^{502,0}
   + 38 t_503^{737,0} + 0 t_737^{503,0} + 45 t_504^{737,0}
   + 0 t_737^{504,0} + 94 t_505^{737,0} + 0 t_737^{505,0}
   + 42 t_506^{737,0} + 0 t_737^{506,0} + 39 t_507^{737,0}
   + 0 t_737^{507,0} + 47 t_508^{737,0} + 0 t_737^{508,0}
   + 86 t_509^{737,0} + 0 t_737^{509,0} + 43 t_510^{737,0}
   + 0 t_737^{510,0} + 47 t_511^{737,0} + 0 t_737^{511,0}
   + 47 t_512^{737,0} + 0 t_737^{512,0} + 39 t_513^{737,0}
   + 0 t_737^{513,0} + 53 t_514^{737,0} + 0 t_737^{514,0}
   + 92 t_515^{737,0} + 0 t_737^{515,0} + 80 t_516^{737,0}
   + 0 t_737^{516,0} + 43 t_517^{737,0} + 0 t_737^{517,0}
   + 40 t_518^{737,0} + 0 t_737^{518,0} + 38 t_519^{737,0}
   + 0 t_737^{519,0} + 54 t_520^{737,0} + 0 t_737^{520,0}
   + 86 t_521^{737,0} + 0 t_737^{521,0} + 44 t_522^{737,0}
   + 0 t_737^{522,0} + 44 t_523^{737,0} + 0 t_737^{523,0}
   + 89 t_524^{737,0} + 0 t_737^{524,0} + 46 t_525^{737,0}
   + 0 t_737^{525,0} + 40 t_526^{737,0} + 0 t_737^{526,0}
   + 41 t_527^{737,0} + 0 t_737^{527,0} + 45 t_528^{737,0}
   + 0 t_737^{528,0} + 37 t_529^{737,0} + 0 t_737^{529,0}
   + 46 t_530^{737,0} + 0 t_737^{530,0} + 99 t_531^{737,0}
   + 0 t_737^{531,0} + 42 t_532^{737,0} + 0 t_737^{532,0}
   + 45 t_533^{737,0} + 0 t_737^{533,0} + 86 t_534^{737,0}
   + 0 t_737^{534,0} + 46 t_535^{737,0} + 0 t_737^{535,0}
   + 44 t_536^{737,0} + 0 t_737^{536,0} + 44 t_537^{737,0}
   + 0 t_737^{537,0} + 89 t_538^{737,0} + 0 t_737^{538,0}
   + 43 t_539^{737,0} + 0 t_737^{539,0} + 47 t_540^{737,0}
   + 0 t_737^{540,0} + 172 t_541^{737,0} + 0 t_737^{541,0}
   + 87 t_542^{737,0} + 0 t_737^{542,0} + 185 t_543^{737,0}
   + 0 t_737^{543,0} + 43 t_544^{737,0} + 0 t_737^{544,0}
   + 41 t_545^{737,0} + 0 t_737^{545,0} + 51 t_546^{737,0}
   + 0 t_737^{546,0} + 90 t_547^{737,0} + 0 t_737^{547,0}
   + 49 t_548^{737,0} + 0 t_737^{548,0} + 37 t_549^{737,0}
   + 0 t_737^{549,0} + 46 t_550^{737,0} + 0 t_737^{550,0}
   + 48 t_551^{737,0} + 0 t_737^{551,0} + 85 t_552^{737,0}
   + 0 t_737^{552,0} + 38 t_553^{737,0} + 0 t_737^{553,0}
   + 137 t_554^{737,0} + 0 t_737^{554,0} + 83 t_555^{737,0}
   + 0 t_737^{555,0} + 89 t_556^{737,0} + 0 t_737^{556,0}
   + 85 t_557^{737,0} + 0 t_737^{557,0} + 90 t_558^{737,0}
   + 0 t_737^{558,0} + 124 t_559^{737,0} + 0 t_737^{559,0}
   + 93 t_560^{737,0} + 0 t_737^{560,0} + 70 t_561^{737,0}
   + 0 t_737^{561,0} + 40 t_562^{737,0} + 0 t_737^{562,0}
   + 100 t_563^{737,0} + 0 t_737^{563,0} + 42 t_564^{737,0}
   + 0 t_737^{564,0} + 53 t_565^{737,0} + 0 t_737^{565,0}
   + 42 t_566^{737,0} + 0 t_737^{566,0} + 23.96 t_566^{537,0}
   + 0 t_537^{566,0} + 45 t_567^{737,0} + 0 t_737^{567,0}
   + 47 t_568^{737,0} + 0 t_737^{568,0} + 50 t_569^{737,0}
   + 0 t_737^{569,0} + 96 t_570^{737,0} + 0 t_737^{570,0}
   + 90 t_571^{737,0} + 0 t_737^{571,0} + 87 t_572^{737,0}
   + 0 t_737^{572,0} + 169 t_573^{737,0} + 0 t_737^{573,0}
   + 49 t_574^{737,0} + 0 t_737^{574,0} + 43 t_575^{737,0}
   + 0 t_737^{575,0} + 44 t_576^{737,0} + 0 t_737^{576,0}
   + 91 t_577^{737,0} + 0 t_737^{577,0} + 45 t_578^{737,0}
   + 0 t_737^{578,0} + 43 t_579^{737,0} + 0 t_737^{579,0}
   + 41 t_580^{737,0} + 0 t_737^{580,0} + 317 t_581^{737,0}
   + 0 t_737^{581,0} + 89 t_582^{737,0} + 0 t_737^{582,0}
   + 83 t_583^{737,0} + 0 t_737^{583,0} + 82 t_584^{737,0}
   + 0 t_737^{584,0} + 46 t_585^{737,0} + 0 t_737^{585,0}
   + 38 t_586^{737,0} + 0 t_737^{586,0} + 16.88 t_586^{588,0}
   + 0 t_588^{586,0} + 46 t_587^{737,0} + 0 t_737^{587,0}
   + 44 t_588^{737,0} + 0 t_737^{588,0} + 257 t_589^{737,0}
   + 0 t_737^{589,0} + 42 t_590^{737,0} + 0 t_737^{590,0}
   + 19.44 t_590^{595,0} + 0 t_595^{590,0} + 43 t_591^{737,0}
   + 0 t_737^{591,0} + 82 t_592^{737,0} + 0 t_737^{592,0}
   + 38 t_593^{737,0} + 0 t_737^{593,0} + 42 t_594^{737,0}
   + 0 t_737^{594,0} + 47 t_595^{737,0} + 0 t_737^{595,0}
   + 125 t_596^{737,0} + 0 t_737^{596,0} + 43 t_597^{737,0}
   + 0 t_737^{597,0} + 38 t_598^{737,0} + 0 t_737^{598,0}
   + 42 t_599^{737,0} + 0 t_737^{599,0} + 37 t_600^{737,0}
   + 0 t_737^{600,0} + 47 t_601^{737,0} + 0 t_737^{601,0}
   + 120 t_602^{737,0} + 0 t_737^{602,0} + 329 t_603^{737,0}
   + 0 t_737^{603,0} + 59 t_604^{737,0} + 0 t_737^{604,0}
   + 87 t_605^{737,0} + 0 t_737^{605,0} + 92 t_606^{737,0}
   + 0 t_737^{606,0} + 53 t_607^{737,0} + 0 t_737^{607,0}
   + 60 t_608^{737,0} + 0 t_737^{608,0} + 105 t_609^{737,0}
   + 0 t_737^{609,0} + 88 t_610^{737,0} + 0 t_737^{610,0}
   + 82 t_611^{737,0} + 0 t_737^{611,0} + 161 t_612^{737,0}
   + 0 t_737^{612,0} + 90 t_613^{737,0} + 0 t_737^{613,0}
   + 75 t_614^{737,0} + 0 t_737^{614,0} + 90 t_615^{737,0}
   + 0 t_737^{615,0} + 85 t_616^{737,0} + 0 t_737^{616,0}
   + 214 t_617^{737,0} + 0 t_737^{617,0} + 44 t_618^{737,0}
   + 0 t_737^{618,0} + 44 t_619^{737,0} + 0 t_737^{619,0}
   + 46 t_620^{737,0} + 0 t_737^{620,0} + 42 t_621^{737,0}
   + 0 t_737^{621,0} + 51 t_622^{737,0} + 0 t_737^{622,0}
   + 53 t_623^{737,0} + 0 t_737^{623,0} + 95 t_624^{737,0}
   + 0 t_737^{624,0} + 41 t_625^{737,0} + 0 t_737^{625,0}
   + 84 t_626^{737,0} + 0 t_737^{626,0} + 100 t_627^{737,0}
   + 0 t_737^{627,0} + 104 t_628^{737,0} + 0 t_737^{628,0}
   + 41 t_629^{737,0} + 0 t_737^{629,0} + 133 t_630^{737,0}
   + 0 t_737^{630,0} + 44 t_631^{737,0} + 0 t_737^{631,0}
   + 40 t_632^{737,0} + 0 t_737^{632,0} + 51 t_633^{737,0}
   + 0 t_737^{633,0} + 44 t_634^{737,0} + 0 t_737^{634,0}
   + 39 t_635^{737,0} + 0 t_737^{635,0} + 58 t_636^{737,0}
   + 0 t_737^{636,0} + 41 t_637^{737,0} + 0 t_737^{637,0}
   + 43 t_638^{737,0} + 0 t_737^{638,0} + 43 t_639^{737,0}
   + 0 t_737^{639,0} + 44 t_640^{737,0} + 0 t_737^{640,0}
   + 42 t_641^{737,0} + 0 t_737^{641,0} + 42 t_642^{737,0}
   + 0 t_737^{642,0} + 56 t_643^{737,0} + 0 t_737^{643,0}
   + 105 t_644^{737,0} + 0 t_737^{644,0} + 162 t_645^{737,0}
   + 0 t_737^{645,0} + 93 t_646^{737,0} + 0 t_737^{646,0}
   + 90 t_647^{737,0} + 0 t_737^{647,0} + 51.28 t_647^{610,0}
   + 0 t_610^{647,0} + 103 t_648^{737,0} + 0 t_737^{648,0}
   + 52 t_649^{737,0} + 0 t_737^{649,0} + 103 t_650^{737,0}
   + 0 t_737^{650,0} + 76 t_651^{737,0} + 0 t_737^{651,0}
   + 49 t_652^{737,0} + 0 t_737^{652,0} + 88 t_653^{737,0}
   + 0 t_737^{653,0} + 79 t_654^{737,0} + 0 t_737^{654,0}
   + 100 t_655^{737,0} + 0 t_737^{655,0} + 50 t_656^{737,0}
   + 0 t_737^{656,0} + 99 t_657^{737,0} + 0 t_737^{657,0}
   + 98 t_658^{737,0} + 0 t_737^{658,0} + 97 t_659^{737,0}
   + 0 t_737^{659,0} + 88 t_660^{737,0} + 0 t_737^{660,0}
   + 89 t_661^{737,0} + 0 t_737^{661,0} + 77 t_662^{737,0}
   + 0 t_737^{662,0} + 92 t_663^{737,0} + 0 t_737^{663,0}
   + 102 t_664^{737,0} + 0 t_737^{664,0} + 42 t_665^{737,0}
   + 0 t_737^{665,0} + 41 t_666^{737,0} + 0 t_737^{666,0}
   + 46 t_667^{737,0} + 0 t_737^{667,0} + 43 t_668^{737,0}
   + 0 t_737^{668,0} + 100 t_669^{737,0} + 0 t_737^{669,0}
   + 70 t_670^{737,0} + 0 t_737^{670,0} + 224 t_671^{737,0}
   + 0 t_737^{671,0} + 51 t_672^{737,0} + 0 t_737^{672,0}
   + 116 t_673^{737,0} + 0 t_737^{673,0} + 47 t_674^{737,0}
   + 0 t_737^{674,0} + 46 t_675^{737,0} + 0 t_737^{675,0}
   + 88 t_676^{737,0} + 0 t_737^{676,0} + 42 t_677^{737,0}
   + 0 t_737^{677,0} + 109 t_678^{737,0} + 0 t_737^{678,0}
   + 111 t_679^{737,0} + 0 t_737^{679,0} + 48 t_680^{737,0}
   + 0 t_737^{680,0} + 52 t_681^{737,0} + 0 t_737^{681,0}
   + 49 t_682^{737,0} + 0 t_737^{682,0} + 250 t_683^{737,0}
   + 0 t_737^{683,0} + 94 t_684^{737,0} + 0 t_737^{684,0}
   + 98 t_685^{737,0} + 0 t_737^{685,0} + 41 t_686^{737,0}
   + 0 t_737^{686,0} + 83 t_687^{737,0} + 0 t_737^{687,0}
   + 161 t_688^{737,0} + 0 t_737^{688,0} + 42 t_689^{737,0}
   + 0 t_737^{689,0} + 43 t_690^{737,0} + 0 t_737^{690,0}
   + 160 t_691^{737,0} + 0 t_737^{691,0} + 45 t_692^{737,0}
   + 0 t_737^{692,0} + 47 t_693^{737,0} + 0 t_737^{693,0}
   + 191 t_694^{737,0} + 0 t_737^{694,0} + 89 t_695^{737,0}
   + 0 t_737^{695,0} + 51 t_696^{737,0} + 0 t_737^{696,0}
   + 44 t_697^{737,0} + 0 t_737^{697,0} + 106 t_698^{737,0}
   + 0 t_737^{698,0} + 89 t_699^{737,0} + 0 t_737^{699,0}
   + 49 t_700^{737,0} + 0 t_737^{700,0} + 104 t_701^{737,0}
   + 0 t_737^{701,0} + 43 t_702^{737,0} + 0 t_737^{702,0}
   + 80 t_703^{737,0} + 0 t_737^{703,0} + 190 t_704^{737,0}
   + 0 t_737^{704,0} + 45 t_705^{737,0} + 0 t_737^{705,0}
   + 51 t_706^{737,0} + 0 t_737^{706,0} + 94 t_707^{737,0}
   + 0 t_737^{707,0} + 120 t_708^{737,0} + 0 t_737^{708,0}
   + 38 t_709^{737,0} + 0 t_737^{709,0} + 41 t_710^{737,0}
   + 0 t_737^{710,0} + 47 t_711^{737,0} + 0 t_737^{711,0}
   + 45 t_712^{737,0} + 0 t_737^{712,0} + 51 t_713^{737,0}
   + 0 t_737^{713,0} + 87 t_714^{737,0} + 0 t_737^{714,0}
   + 43 t_715^{737,0} + 0 t_737^{715,0} + 52 t_716^{737,0}
   + 0 t_737^{716,0} + 92 t_717^{737,0} + 0 t_737^{717,0}
   + 92 t_718^{737,0} + 0 t_737^{718,0} + 121 t_719^{737,0}
   + 0 t_737^{719,0} + 42 t_720^{737,0} + 0 t_737^{720,0}
   + 45 t_721^{737,0} + 0 t_737^{721,0} + 83 t_722^{737,0}
   + 0 t_737^{722,0} + 50 t_723^{737,0} + 0 t_737^{723,0}
   + 47 t_724^{737,0} + 0 t_737^{724,0} + 48 t_725^{737,0}
   + 0 t_737^{725,0} + 49 t_726^{737,0} + 0 t_737^{726,0}
   + 39 t_727^{737,0} + 0 t_737^{727,0} + 53 t_728^{737,0}
   + 0 t_737^{728,0} + 48 t_729^{737,0} + 0 t_737^{729,0}
   + 48 t_730^{737,0} + 0 t_737^{730,0} + 140 t_731^{737,0}
   + 0 t_737^{731,0} + 94 t_732^{737,0} + 0 t_737^{732,0}
   + 44 t_733^{737,0} + 0 t_737^{733,0} + 41 t_734^{737,0}
   + 0 t_737^{734,0} + 91 t_735^{737,0} + 0 t_737^{735,0}
   + 79 t_736^{737,0} + 0 t_737^{736,0} + 0 t_737^{737,0} + 0 t_737^{737,0}
Subject To
Bounds
End
